NAME: sim-grid-A-10
TYPE: TSP
COMMENT: Semi-regular Grid
DIMENSION: 10
EDGE_WEIGHT_TYPE: EUC_2D
NODE_COORD_SECTION
1 1450 100
2 200 200
3 1100 200
4 700 400
5 400 500
6 800 500
7 350 700
8 450 800
9 950 800
10 1450 800
EOF
